certificates/rado_a10_c68_N19.drat
-17 -19 0
d -17 -7 -19 0
7 -19 0
-19 0
17 0
-7 0
5 0
9 0
8 0
0
